Route #1: 62 11 90 20 32 70 
Route #2: 59 99 94 96 
Route #3: 5 83 61 85 37 93 
Route #4: 65 71 81 50 
Route #5: 33 29 78 34 35 77 
Route #6: 36 47 19 8 46 17 
Route #7: 45 82 18 84 60 89 
Route #8: 28 12 40 53 26 
Route #9: 2 21 73 41 56 74 58 
Route #10: 63 64 49 48 
Route #11: 39 23 67 55 4 25 
Route #12: 30 51 9 66 1 
Route #13: 31 88 7 10 
Route #14: 27 69 76 79 3 68 
Route #15: 72 75 22 54 24 80 
Route #16: 92 42 15 87 57 97 
Route #17: 14 44 38 43 13 
Route #18: 95 98 16 86 91 100 
Route #19: 52 6 
Objective: 350488.5
